benchmarks/VRPTW/TSPTW/solution/n40w40.003.txt.solution
1 17 2 18 12 32 31 36 11 10 35 8 39 24 28 25 3 33 5 7 30 6 15 23 26 13 37 20 4 27 21 9 38 22 40 14 34 29 41 19 16 
474
